experiments/sat_smt/run/sat-r/results/jack_jill.res
solved=true
solvingTime=45.5508270263671875
nActions=16