experiments/sat_smt/run/sat-r/results/jack_jill.out
Timesteps: 1
s UNSATISFIABLE
real 0.12
user 0.02
sys 0.00
Timesteps: 2
s UNSATISFIABLE
real 0.14
user 0.03
sys 0.00
Timesteps: 3
s UNSATISFIABLE
real 0.22
user 0.05
sys 0.00
Timesteps: 4
s UNSATISFIABLE
real 0.18
user 0.07
sys 0.01
Timesteps: 5
s UNSATISFIABLE
real 0.22
user 0.11
sys 0.01
Timesteps: 6
s UNSATISFIABLE
real 0.29
user 0.16
sys 0.01
Timesteps: 7
s UNSATISFIABLE
real 0.56
user 0.40
sys 0.01
Timesteps: 8
s UNSATISFIABLE
real 0.46
user 0.26
sys 0.02
Timesteps: 9
s UNSATISFIABLE
real 0.90
user 0.69
sys 0.02
Timesteps: 10
s UNSATISFIABLE
real 1.27
user 1.04
sys 0.02
Timesteps: 11
s UNSATISFIABLE
real 2.62
user 2.04
sys 0.02
Timesteps: 12
s UNSATISFIABLE
real 3.25
user 2.56
sys 0.03
Timesteps: 13
s UNSATISFIABLE
real 5.30
user 4.57
sys 0.03
Timesteps: 14
s UNSATISFIABLE
real 8.40
user 7.60
sys 0.04
Timesteps: 15
s UNSATISFIABLE
real 17.24
user 16.33
sys 0.06
Timesteps: 16
s SATISFIABLE
real 6.49
user 5.69
sys 0.03
